data;

param w := 25;
param n := 19;
param min_h := 25;
param max_h := 40;

set BLOCKS := 1 2 3 4 5 6 7 8 9 10 11 12 13 14 15 16 17 18 19 ;

param:	width	height :=
	1	3	25
	2	3	19
	3	3	18
	4	4	13
	5	3	17
	6	3	14
	7	3	13
	8	3	11
	9	3	10
	10	4	7
	11	3	9
	12	3	8
	13	3	7
	14	4	5
	15	3	6
	16	6	3
	17	3	5
	18	3	4
	19	3	3;